MoS2
	1.00000
    6.50000    0.00000    0.00000
   -3.25000    5.62917    0.00000
    0.00000    0.00000   16.14000
   Se   Mo
    8    4
Direct
    0.000000   0.500000   0.000000
    0.500000   0.500000   0.000000
    0.500000   0.000000   0.000000
    0.333333   0.166667   0.190211
    0.833333   0.166667   0.190211
    0.833333   0.666667   0.190211
    0.333333   0.666667   0.190211
    0.000000   0.000000   0.000000
    0.054800   0.267900   0.095105
    0.732100   0.786900   0.095105
    0.213100   0.945200   0.095105
    0.666667   0.333333   0.095105
