MoS2
  1.0
       6.5000000000         0.0000000000          0.0000000000
      -3.2500000000         5.6291651246          0.0000000000
       0.0000000000         0.0000000000         16.1399998665
Se   Mo
8    4
Cartesian
   -1.625000000         2.814582586         0.000000000
    1.625000000         2.814582586         0.000000000
    3.250000000         0.000000000         0.000000000
    1.625000119         0.938194215         3.069999933
    4.875000000         0.938194215         3.069999933
    3.250000000         3.752776623         3.069999933
    0.000000015         3.752776861         3.069999933
    0.000000000         0.000000000         0.000000000
   -0.514474988         1.508053303         1.534999967
    2.201224804         4.429590225         1.534999967
   -1.686750174         5.320687294         1.534999967
    3.250000238         1.876388431         1.534999967

