VASP POSCAR format: to_primitive=0 and no_idealize=0
1.0
4.000000 0.000000 0.000000
0.000000 4.000000 0.000000
0.000000 0.000000 4.000000
S
2
Direct
0.000000 0.000000 0.000000
0.500000 0.500000 0.500000
